(set-logic QF_LRA)
(declare-fun X0 () Real )
(declare-fun Y0 () Real )
(declare-fun X1 () Real )
(declare-fun Y1 () Real )
(declare-fun X2 () Real )
(declare-fun Y2 () Real )
(declare-fun X3 () Real )
(declare-fun Y3 () Real )
(declare-fun X4 () Real )
(declare-fun Y4 () Real )
(declare-fun X5 () Real )
(declare-fun Y5 () Real )
(declare-fun X6 () Real )
(declare-fun Y6 () Real )
(declare-fun X7 () Real )
(declare-fun Y7 () Real )
(declare-fun X8 () Real )
(declare-fun Y8 () Real )
(declare-fun Z () Real )
(assert ( and  
( or ( <= ( + X0 49 ) X1 )  ( <= ( + X1 25 ) X0 )  ( <= ( + Y0 47 ) Y1 )  ( <= ( + Y1 51 ) Y0 )  )
( or ( <= ( + X0 49 ) X2 )  ( <= ( + X2 93 ) X0 )  ( <= ( + Y0 47 ) Y2 )  ( <= ( + Y2 93 ) Y0 )  )
( or ( <= ( + X0 49 ) X3 )  ( <= ( + X3 46 ) X0 )  ( <= ( + Y0 47 ) Y3 )  ( <= ( + Y3 91 ) Y0 )  )
( or ( <= ( + X0 49 ) X4 )  ( <= ( + X4 34 ) X0 )  ( <= ( + Y0 47 ) Y4 )  ( <= ( + Y4 1 ) Y0 )  )
( or ( <= ( + X0 49 ) X5 )  ( <= ( + X5 8 ) X0 )  ( <= ( + Y0 47 ) Y5 )  ( <= ( + Y5 98 ) Y0 )  )
( or ( <= ( + X0 49 ) X6 )  ( <= ( + X6 62 ) X0 )  ( <= ( + Y0 47 ) Y6 )  ( <= ( + Y6 62 ) Y0 )  )
( or ( <= ( + X0 49 ) X7 )  ( <= ( + X7 85 ) X0 )  ( <= ( + Y0 47 ) Y7 )  ( <= ( + Y7 49 ) Y0 )  )
( or ( <= ( + X0 49 ) X8 )  ( <= ( + X8 33 ) X0 )  ( <= ( + Y0 47 ) Y8 )  ( <= ( + Y8 73 ) Y0 )  )
( or ( <= ( + X1 25 ) X2 )  ( <= ( + X2 93 ) X1 )  ( <= ( + Y1 51 ) Y2 )  ( <= ( + Y2 93 ) Y1 )  )
( or ( <= ( + X1 25 ) X3 )  ( <= ( + X3 46 ) X1 )  ( <= ( + Y1 51 ) Y3 )  ( <= ( + Y3 91 ) Y1 )  )
( or ( <= ( + X1 25 ) X4 )  ( <= ( + X4 34 ) X1 )  ( <= ( + Y1 51 ) Y4 )  ( <= ( + Y4 1 ) Y1 )  )
( or ( <= ( + X1 25 ) X5 )  ( <= ( + X5 8 ) X1 )  ( <= ( + Y1 51 ) Y5 )  ( <= ( + Y5 98 ) Y1 )  )
( or ( <= ( + X1 25 ) X6 )  ( <= ( + X6 62 ) X1 )  ( <= ( + Y1 51 ) Y6 )  ( <= ( + Y6 62 ) Y1 )  )
( or ( <= ( + X1 25 ) X7 )  ( <= ( + X7 85 ) X1 )  ( <= ( + Y1 51 ) Y7 )  ( <= ( + Y7 49 ) Y1 )  )
( or ( <= ( + X1 25 ) X8 )  ( <= ( + X8 33 ) X1 )  ( <= ( + Y1 51 ) Y8 )  ( <= ( + Y8 73 ) Y1 )  )
( or ( <= ( + X2 93 ) X3 )  ( <= ( + X3 46 ) X2 )  ( <= ( + Y2 93 ) Y3 )  ( <= ( + Y3 91 ) Y2 )  )
( or ( <= ( + X2 93 ) X4 )  ( <= ( + X4 34 ) X2 )  ( <= ( + Y2 93 ) Y4 )  ( <= ( + Y4 1 ) Y2 )  )
( or ( <= ( + X2 93 ) X5 )  ( <= ( + X5 8 ) X2 )  ( <= ( + Y2 93 ) Y5 )  ( <= ( + Y5 98 ) Y2 )  )
( or ( <= ( + X2 93 ) X6 )  ( <= ( + X6 62 ) X2 )  ( <= ( + Y2 93 ) Y6 )  ( <= ( + Y6 62 ) Y2 )  )
( or ( <= ( + X2 93 ) X7 )  ( <= ( + X7 85 ) X2 )  ( <= ( + Y2 93 ) Y7 )  ( <= ( + Y7 49 ) Y2 )  )
( or ( <= ( + X2 93 ) X8 )  ( <= ( + X8 33 ) X2 )  ( <= ( + Y2 93 ) Y8 )  ( <= ( + Y8 73 ) Y2 )  )
( or ( <= ( + X3 46 ) X4 )  ( <= ( + X4 34 ) X3 )  ( <= ( + Y3 91 ) Y4 )  ( <= ( + Y4 1 ) Y3 )  )
( or ( <= ( + X3 46 ) X5 )  ( <= ( + X5 8 ) X3 )  ( <= ( + Y3 91 ) Y5 )  ( <= ( + Y5 98 ) Y3 )  )
( or ( <= ( + X3 46 ) X6 )  ( <= ( + X6 62 ) X3 )  ( <= ( + Y3 91 ) Y6 )  ( <= ( + Y6 62 ) Y3 )  )
( or ( <= ( + X3 46 ) X7 )  ( <= ( + X7 85 ) X3 )  ( <= ( + Y3 91 ) Y7 )  ( <= ( + Y7 49 ) Y3 )  )
( or ( <= ( + X3 46 ) X8 )  ( <= ( + X8 33 ) X3 )  ( <= ( + Y3 91 ) Y8 )  ( <= ( + Y8 73 ) Y3 )  )
( or ( <= ( + X4 34 ) X5 )  ( <= ( + X5 8 ) X4 )  ( <= ( + Y4 1 ) Y5 )  ( <= ( + Y5 98 ) Y4 )  )
( or ( <= ( + X4 34 ) X6 )  ( <= ( + X6 62 ) X4 )  ( <= ( + Y4 1 ) Y6 )  ( <= ( + Y6 62 ) Y4 )  )
( or ( <= ( + X4 34 ) X7 )  ( <= ( + X7 85 ) X4 )  ( <= ( + Y4 1 ) Y7 )  ( <= ( + Y7 49 ) Y4 )  )
( or ( <= ( + X4 34 ) X8 )  ( <= ( + X8 33 ) X4 )  ( <= ( + Y4 1 ) Y8 )  ( <= ( + Y8 73 ) Y4 )  )
( or ( <= ( + X5 8 ) X6 )  ( <= ( + X6 62 ) X5 )  ( <= ( + Y5 98 ) Y6 )  ( <= ( + Y6 62 ) Y5 )  )
( or ( <= ( + X5 8 ) X7 )  ( <= ( + X7 85 ) X5 )  ( <= ( + Y5 98 ) Y7 )  ( <= ( + Y7 49 ) Y5 )  )
( or ( <= ( + X5 8 ) X8 )  ( <= ( + X8 33 ) X5 )  ( <= ( + Y5 98 ) Y8 )  ( <= ( + Y8 73 ) Y5 )  )
( or ( <= ( + X6 62 ) X7 )  ( <= ( + X7 85 ) X6 )  ( <= ( + Y6 62 ) Y7 )  ( <= ( + Y7 49 ) Y6 )  )
( or ( <= ( + X6 62 ) X8 )  ( <= ( + X8 33 ) X6 )  ( <= ( + Y6 62 ) Y8 )  ( <= ( + Y8 73 ) Y6 )  )
( or ( <= ( + X7 85 ) X8 )  ( <= ( + X8 33 ) X7 )  ( <= ( + Y7 49 ) Y8 )  ( <= ( + Y8 73 ) Y7 )  )
( >= X0 0)
( <= ( + X0 49) Z)
( >= Y0 0)
( <= ( + Y0 47 ) 100)
( >= X1 0)
( <= ( + X1 25) Z)
( >= Y1 0)
( <= ( + Y1 51 ) 100)
( >= X2 0)
( <= ( + X2 93) Z)
( >= Y2 0)
( <= ( + Y2 93 ) 100)
( >= X3 0)
( <= ( + X3 46) Z)
( >= Y3 0)
( <= ( + Y3 91 ) 100)
( >= X4 0)
( <= ( + X4 34) Z)
( >= Y4 0)
( <= ( + Y4 1 ) 100)
( >= X5 0)
( <= ( + X5 8) Z)
( >= Y5 0)
( <= ( + Y5 98 ) 100)
( >= X6 0)
( <= ( + X6 62) Z)
( >= Y6 0)
( <= ( + Y6 62 ) 100)
( >= X7 0)
( <= ( + X7 85) Z)
( >= Y7 0)
( <= ( + Y7 49 ) 100)
( >= X8 0)
( <= ( + X8 33) Z)
( >= Y8 0)
( <= ( + Y8 73 ) 100)
) )
(minimize Z)
(check-sat)
